p cnf 22 9
a 1 2 0
e 3 4 5 6 0
a 7 0
e 8 9 10 0
a 11 0
e 12 0
a 13 14 15 0
e 16 0
a 17 18 0
e 19 0
a 20 21 0
e 22 0
-22 -17 0
17 -15 18 0
12 -22 0
-12 17 -3 6 11 0
21 6 2 -17 20 0
3 9 22 0
-21 8 0
20 11 14 -15 0
-6 -10 14 0
